[2026-03-23T13:49:46.265Z] Pipeline "set_exp_2_exp_2_n032_c006_g005" → 2026_03_23_13_49_46_set_exp_2_exp_2_n032_c006_g005_max.sol
Set parameter WLSAccessID
Set parameter WLSSecret
Set parameter LicenseID to value 2792458
Set parameter LogFile to value "gurobi.log"
Using license file /root/gurobi.lic
Academic license 2792458 - for non-commercial use only - registered to an___@studenti.unipg.it

Gurobi Optimizer version 13.0.1 build v13.0.1rc0 (linux64 - "Ubuntu 24.04.4 LTS")
Copyright (c) 2026, Gurobi Optimization, LLC

Warning: Duplicate section found (read 'binary') - Is a variable name equal to an LP file format keyword?
Warning: Duplicate section found (read 'binary') - Is a variable name equal to an LP file format keyword?
Warning: Duplicate section found (read 'binary') - Is a variable name equal to an LP file format keyword?
Warning: Duplicate section found (read 'binary') - Is a variable name equal to an LP file format keyword?
Warning: Duplicate section found (read 'binary') - Is a variable name equal to an LP file format keyword?
Warning: Duplicate section found (read 'binary') - Is a variable name equal to an LP file format keyword?
Warning: Duplicate section found (read 'binary') - Is a variable name equal to an LP file format keyword?
Warning: Duplicate section found (read 'binary') - Is a variable name equal to an LP file format keyword?
Warning: Duplicate section found (read 'binary') - Is a variable name equal to an LP file format keyword?
Warning: Duplicate section found (read 'binary') - Is a variable name equal to an LP file format keyword?
Warning: Further warnings of this type will be omitted.
Read LP format model from file /root/bgw/data/uploads/2026_03_23_13_49_46_set_exp_2_exp_2_n032_c006_g005_max.lp
Reading time = 0.01 seconds
: 11266 rows, 786 columns, 33424 nonzeros

Using Gurobi shared library /opt/gurobi1301/linux64/lib/libgurobi.so.13.0.1

CPU model: AMD EPYC-Genoa Processor, instruction set [SSE2|AVX|AVX2|AVX512]
Thread count: 16 physical cores, 16 logical processors, using up to 16 threads

Academic license 2792458 - for non-commercial use only - registered to an___@studenti.unipg.it
Optimize a model with 11266 rows, 786 columns and 33424 nonzeros (Max)
Model fingerprint: 0x9b1d971b
Model has 6 linear objective coefficients
Variable types: 38 continuous, 748 integer (748 binary)
Coefficient statistics:
  Matrix range     [1e+00, 3e+01]
  Objective range  [1e+00, 1e+00]
  Bounds range     [1e+00, 1e+00]
  RHS range        [1e+00, 3e+01]

Found heuristic solution: objective 6.0000000
Presolve removed 1308 rows and 266 columns
Presolve time: 0.04s
Presolved: 9958 rows, 520 columns, 30164 nonzeros
Variable types: 0 continuous, 520 integer (510 binary)
Found heuristic solution: objective 7.0000000

Root relaxation: objective 2.400000e+01, 351 iterations, 0.03 seconds (0.04 work units)

    Nodes    |    Current Node    |     Objective Bounds      |     Work
 Expl Unexpl |  Obj  Depth IntInf | Incumbent    BestBd   Gap | It/Node Time

     0     0   24.00000    0   31    7.00000   24.00000   243%     -    0s
H    0     0                      11.0000000   24.00000   118%     -    0s
H    0     0                      13.0000000   24.00000  84.6%     -    0s
H    0     0                      14.0000000   24.00000  71.4%     -    0s
H    0     0                      15.0000000   24.00000  60.0%     -    0s
H    0     0                      17.0000000   24.00000  41.2%     -    0s
     0     0   24.00000    0   32   17.00000   24.00000  41.2%     -    0s
     0     0   24.00000    0   34   17.00000   24.00000  41.2%     -    0s
     0     0   24.00000    0   26   17.00000   24.00000  41.2%     -    0s
     0     0   24.00000    0   46   17.00000   24.00000  41.2%     -    0s
     0     0   24.00000    0   27   17.00000   24.00000  41.2%     -    0s
     0     0   24.00000    0   32   17.00000   24.00000  41.2%     -    0s
     0     0   24.00000    0   23   17.00000   24.00000  41.2%     -    0s
     0     0   24.00000    0   31   17.00000   24.00000  41.2%     -    0s
     0     0   24.00000    0   27   17.00000   24.00000  41.2%     -    0s
     0     0   24.00000    0   25   17.00000   24.00000  41.2%     -    0s
     0     0   24.00000    0   25   17.00000   24.00000  41.2%     -    0s
     0     0   24.00000    0   29   17.00000   24.00000  41.2%     -    0s
     0     0   24.00000    0   31   17.00000   24.00000  41.2%     -    0s
     0     0   24.00000    0   31   17.00000   24.00000  41.2%     -    0s
     0     0   24.00000    0   34   17.00000   24.00000  41.2%     -    0s
     0     0   24.00000    0   30   17.00000   24.00000  41.2%     -    0s
     0     0   24.00000    0   30   17.00000   24.00000  41.2%     -    0s
     0     0   24.00000    0   27   17.00000   24.00000  41.2%     -    0s
     0     2   24.00000    0   27   17.00000   24.00000  41.2%     -    0s

Cutting planes:
  Cover: 2
  MIR: 3
  Inf proof: 12
  Zero half: 2

Explored 825 nodes (150523 simplex iterations) in 2.61 seconds (4.34 work units)
Thread count was 16 (of 16 available processors)

Solution count 7: 17 15 14 ... 6

Optimal solution found (tolerance 1.00e-04)
Best objective 1.700000000000e+01, best bound 1.700000000000e+01, gap 0.0000%

Wrote result file '/root/bgw/data/results/2026_03_23_13_49_46_set_exp_2_exp_2_n032_c006_g005_max.sol'

